116 105 130 61 144 133 145 47 3 53 193 184 171 114 58 86 99 50 18 43 46 140 191 36 25 115 90 5 60 109 166 146 34 174 110 107 117 95 185 131 196 77 82 195 151 65 29 142 21 165 150 14 173 147 38 159 104 45 128 175 56 8 75 44 20 84 188 27 32 11 4 103 177 118 1 126 81 164 111 68 129 134 136 168 64 102 127 198 33 121 30 96 167 172 169 93 42 73 157 51 79 67 17 137 37 55 149 123 135 180 22 100 124 119 97 197 66 83 40 91 143 113 153 71 63 148 62 41 190 16 98 189 35 85 181 9 28 10 139 31 160 76 183 69 108 179 192 199 155 49 78 120 176 106 19 24 112 141 186 125 87 92 0 12 194 182 163 72 52 54 122 23 70 187 80 74 158 15 156 161 89 152 88 94 39 6 26 7 13 132 2 154 57 138 48 170 162 178 101 59